data/benchmarks/bayes/75-12-9-q.cnf
p cnf 672 657
c weights 0.778897 0.22110300000000005 1 1 1 1 1 1 1 1 1 1 1 1 1 1 1 1 1 1 1 1 1 1 1 1 1 1 1 1 1 1 1 1 1 1 1 1 1 1 1 1 1 1 1 1 1 1 1 1 1 1 1 1 1 1 1 1 1 1 1 1 1 1 1 1 1 1 1 1 1 1 1 1 1 1 1 1 1 1 1 1 1 1 1 1 1 1 1 1 1 1 1 1 1 1 1 1 1 1 1 1 1 1 1 1 1 1 1 1 1 1 1 1 1 1 1 1 1 1 1 1 1 1 1 1 1 1 1 1 1 1 1 1 1 1 1 1 1 1 1 1 1 1 1 1 1 1 1 1 1 1 1 1 1 1 1 1 1 1 1 1 1 1 1 1 1 1 1 1 1 1 1 1 1 1 1 1 1 1 1 1 1 1 1 1 1 1 1 1 1 1 1 1 1 1 1 1 1 1 1 1 1 1 1 1 1 1 1 1 1 1 1 1 1 1 1 1 1 1 1 1 1 1 1 1 1 1 1 1 1 1 1 1 1 1 1 1 1 1 1 1 1 1 1 1 1 1 1 1 1 1 1 1 1 1 1 1 1 1 1 1 1 1 1 1 1 1 1 1 1 1 1 1 1 1 1 1 1 1 1 1 1 1 1 1 1 1 0.5 0.5 0.5 0.5 0.908449 0.09155100000000005 0.353983 0.6460170000000001 0.482279 0.517721 0.901333 0.09866699999999995 0.5 0.5 0.5 0.5 0.5 0.5 0.5 0.5 0.5 0.5 0.5 0.5 0.5 0.5 0.5 0.5 0.5 0.5 0.5 0.5 0.5 0.5 0.5 0.5 0.588304 0.41169599999999995 0.480106 0.5198940000000001 0.5 0.5 0.5 0.5 0.5 0.5 0.5 0.5 0.5 0.5 0.5 0.5 0.5 0.5 0.5 0.5 0.5 0.5 0.5 0.5 0.5 0.5 0.5 0.5 0.400341 0.5996589999999999 0.0379312 0.9620688 0.300822 0.6991780000000001 0.672442 0.327558 0.5 0.5 0.5 0.5 0.5 0.5 0.5 0.5 0.5 0.5 0.5 0.5 0.5 0.5 0.5 0.5 0.5 0.5 0.5 0.5 0.5 0.5 0.5 0.5 0.466393 0.5336069999999999 0.658039 0.34196099999999996 0.722558 0.27744199999999997 0.950315 0.04968499999999998 0.381504 0.6184959999999999 0.342686 0.657314 0.30207 0.6979299999999999 0.809112 0.19088799999999995 0.5 0.5 0.5 0.5 0.5 0.5 0.5 0.5 0.5 0.5 0.5 0.5 0.5 0.5 0.5 0.5 0.5 0.5 0.5 0.5 0.5 0.5 0.5 0.5 0.5 0.5 0.5 0.5 0.422704 0.577296 0.491892 0.508108 0.333808 0.666192 0.256689 0.743311 0.991846 0.008153999999999995 0.979247 0.02075300000000002 0.908601 0.09139900000000001 0.794909 0.20509100000000002 0.5 0.5 0.5 0.5 0.5 0.5 0.5 0.5 0.5 0.5 0.5 0.5 0.5 0.5 0.5 0.5 0.5 0.5 0.5 0.5 0.5 0.5 0.5 0.5 0.557577 0.442423 0.582039 0.417961 0.500389 0.499611 0.964985 0.03501500000000002 0.5 0.5 0.5 0.5 0.5 0.5 0.5 0.5 0.5 0.5 0.5 0.5 0.5 0.5 0.5 0.5 0.5 0.5 0.5 0.5 0.5 0.5 0.5 0.5 0.5 0.5 0.5 0.5 0.5 0.5 0.5 0.5 0.5 0.5 0.5 0.5 0.5 0.5 0.5 0.5 0.5 0.5 0.5 0.5 0.5 0.5 0.5 0.5 0.5 0.5 0.5 0.5 0.764525 0.235475 0.233671 0.766329 0.677615 0.32238500000000003 0.923556 0.07644399999999996 0.5 0.5 0.5 0.5 0.5 0.5 0.5 0.5 0.5 0.5 0.5 0.5 0.5 0.5 0.5 0.5 0.5 0.5 0.5 0.5 0.5 0.5 0.5 0.5 0.5 0.5 0.5 0.5 0.5 0.5 0.5 0.5 0.5 0.5 0.5 0.5 0.5 0.5 0.5 0.5 0.983158 0.016842000000000024 0.891645 0.10835499999999998 0.124399 0.875601 0.660773 0.33922699999999995 0.681833 0.318167 0.957989 0.04201100000000002 0.258538 0.7414620000000001 0.814318 0.185682 0.39152 0.60848 0.990478 0.00952200000000003 0.501553 0.498447 0.231052 0.768948 0.5 0.5 0.5 0.5 0.5 0.5 0.5 0.5 0.5 0.5 0.5 0.5 0.5 0.5 0.5 0.5 0.5 0.5 0.5 0.5 0.5 0.5 0.5 0.5 0.5 0.5 0.5 0.5 0.5 0.5 0.5 0.5 0.5 0.5 0.5 0.5 0.901389 0.098611 0.792379 0.20762100000000006 0.804441 0.19555900000000004 0.873174 0.126826 0.5 0.5 0.5 0.5 0.5 0.5 0.5 0.5 0.5 0.5 0.5 0.5 0.5 0.5 0.5 0.5 0.803025 0.196975 0.763833 0.23616700000000002 0.983577 0.016422999999999965 0.0239681 0.9760319 0.683452 0.31654800000000005 0.317131 0.682869 0.232537 0.767463 0.510446 0.48955400000000004 0.5 0.5 0.5 0.5 0.5 0.5 0.5 0.5 0.799435 0.200565 0.359954 0.640046 0.555305 0.44469499999999995 0.603876 0.39612400000000003 0.5 0.5 0.5 0.5 0.5 0.5 0.5 0.5 0.5 0.5 0.5 0.5 0.5 0.5 0.5 0.5 0.5 0.5 0.5 0.5 0.857538 0.14246199999999998 0.749775 0.25022500000000003 0.823782 0.17621799999999999 0.790606 0.20939399999999997 0.5 0.5 0.5 0.5 0.5 0.5 0.5 0.5 0.5 0.5 0.5 0.5 0.5 0.5 0.5 0.5 0.5 0.5 0.5 0.5 0.5 0.5 0.5 0.5 0.5 0.5 0.5 0.5 0.5 0.5 0.5 0.5 0.773299 0.22670100000000004 0.58428 0.41572 0.898717 0.10128300000000001 0.867005 0.13299499999999997 0.5 0.5 0.5 0.5 0.5 0.5 0.5 0.5 0.5 0.5 0.5 0.5 0.5 0.5 0.5 0.5 0.5 0.5 0.5 0.5 0.5 0.5 0.5 0.5 0.5 0.5 0.5 0.5 0.5 0.5 0.5 0.5 0.5 0.5 0.5 0.5 0.5 0.5 0.5 0.5 0.5 0.5 0.5 0.5 0.5 0.5 0.5 0.5 0.5 0.5 0.5 0.5 0.5 0.5 0.5 0.5 0.5 0.5 0.5 0.5 0.109419 0.890581 0.804821 0.195179 0.207941 0.7920590000000001 0.186018 0.813982 0.5 0.5 0.5 0.5 0.5 0.5 0.5 0.5 0.5 0.5 0.5 0.5 0.5 0.5 0.5 0.5 0.114832 0.885168 0.707292 0.29270799999999997 0.0480936 0.9519064 0.579262 0.42073799999999995 0.5 0.5 0.5 0.5 0.5 0.5 0.5 0.5 0.538866 0.46113400000000004 0.0235917 0.9764083 0.537803 0.46219699999999997 0.866533 0.133467 0.647222 0.35277800000000004 0.671354 0.328646 0.134311 0.8656889999999999 0.83324 0.16676000000000002 0.5 0.5 0.5 0.5 0.5 0.5 0.5 0.5 0.5 0.5 0.5 0.5 0.5 0.5 0.5 0.5 0.5 0.5 0.5 0.5 0.5 0.5 0.5 0.5 0.5 0.5 0.5 0.5 0.5 0.5 0.5 0.5 0.5 0.5 0.5 0.5 0.5 0.5 0.5 0.5 0.5 0.5 0.5 0.5 0.5 0.5 0.5 0.5 0.5 0.5 0.5 0.5 0.5 0.5 0.5 0.5 0.5 0.5 0.5 0.5 0.5 0.5 0.5 0.5 0.5 0.5 0.5 0.5 0.5 0.5 0.5 0.5 0.5 0.5 0.5 0.5 0.5 0.5 0.5 0.5 0.5 0.5 0.5 0.5 0.5 0.5 0.5 0.5 0.5 0.5 0.5 0.5 0.932456 0.06754400000000005 0.425715 0.5742849999999999 0.103657 0.896343 0.489354 0.5106459999999999 0.493158 0.506842 0.21267 0.78733 0.5 0.5 0.5 0.5 0.5 0.5 0.5 0.5 0.303949 0.696051 0.414967 0.585033 0.468587 0.531413 0.189781 0.810219 0.405288 0.594712 0.684991 0.315009 0.0584667 0.9415333 0.653822 0.346178 0.5 0.5 0.5 0.5 0.5 0.5 0.5 0.5 0.5 0.5 0.5 0.5 0.5 0.5 0.5 0.5 0.5 0.5 0.5 0.5 0.5 0.5 0.5 0.5 0.5 0.5 0.5 0.5 0.5 0.5 0.5 0.5 0.5 0.5 0.5 0.5 0.5 0.5 0.5 0.5 0.5 0.5 0.5 0.5 0.5 0.5 0.5 0.5 0.273479 0.726521 0.0627569 0.9372431 0.052667 0.947333 0.797693 0.20230700000000001 0.294401 0.705599 0.12879 0.87121 0.551405 0.44859499999999997 0.96185 0.03815000000000002 0.5 0.5 0.5 0.5 0.5 0.5 0.5 0.5 0.5 0.5 0.5 0.5 0.727449 0.272551 0.00736807 0.99263193 0.360706 0.639294 0.104725 0.895275 0.5 0.5 0.5 0.5 0.5 0.5 0.5 0.5 0.5 0.5 0.5 0.5 0.5 0.5 0.5 0.5 0.90255 0.09745000000000004 0.996797 0.003202999999999956 0.613748 0.38625200000000004 0.196951 0.803049 0.5 0.5 0.5 0.5 0.5 0.5 0.5 0.5 0.5 0.5 0.5 0.5 0.5 0.5 0.5 0.5 0.0979151 0.9020849 0.272498 0.727502 0.236841 0.763159 0.20264 0.7973600000000001 0.5 0.5 0.5 0.5 0.5 0.5 0.5 0.5 0.286654 0.713346 0.389688 0.610312 0.508393 0.491607 0.136537 0.863463 0.5 0.5 0.5 0.5 0.5 0.5 0.5 0.5 0.5 0.5 0.5 0.5 0.5 0.5 0.5 0.5 0.5 0.5 0.5 0.5 0.5 0.5 0.5 0.5 0.5 0.5 0.5 0.5 0.5 0.5 0.5 0.5 0.5 0.5 0.5 0.5 0.656626 0.34337399999999996 0.00573811 0.99426189 0.265097 0.734903 0.45488 0.54512 0.5 0.5 0.5 0.5 0.5 0.5 0.5 0.5 0.5 0.5 0.5 0.5 0.5 0.5 0.5 0.5 0.5 0.5 0.5 0.5 0.5 0.5 0.5 0.5 0.5 0.5 0.5 0.5 0.5 0.5 0.5 0.5 0.5 0.5 0.5 0.5 0.5 0.5 0.5 0.5 0.5 0.5 0.5 0.5 0.5 0.5 0.5 0.5 0.5 0.5 0.5 0.5 0.5 0.5 0.5 0.5 0.5 0.5 0.5 0.5 0.5 0.5 0.5 0.5 0.5 0.5 0.5 0.5 0.5 0.5 0.5 0.5 0.5 0.5 0.5 0.5 0.5 0.5 0.5 0.5 0.5 0.5 0.5 0.5 0.5 0.5 0.5 0.5 0.5 0.5 0.5 0.5 0.5 0.5 0.5 0.5 0.5 0.5 0.5 0.5 0.5 0.5 0.5 0.5 0.5 0.5 0.5 0.5 0.5 0.5 0.5 0.5 0.5 0.5 0.5 0.5 0.5 0.5 0.5 0.5 0.5 0.5 0.5 0.5 0.5 0.5 0.5 0.5 0.5 0.5 0.5 0.5 0.5 0.5 0.5 0.5 0.5 0.5 0.5 0.5 0.5 0.5 0.5 0.5 0.5 0.5 0.5 0.5
-1 2 0
1 -2 0
-2 -147 3 0
-2 147 -3 0
2 -148 3 0
2 148 -3 0
-3 -149 4 0
-3 149 -4 0
3 -150 4 0
3 150 -4 0
-4 -5 0
4 5 0
-5 -6 0
5 6 0
-6 7 0
6 -7 0
-7 8 0
7 -8 0
-8 9 0
8 -9 0
-9 10 0
9 -10 0
-10 -163 11 0
-10 163 -11 0
10 -164 11 0
10 164 -11 0
-11 12 0
11 -12 0
-1 -13 0
1 13 0
-13 -2 -14 0
-13 2 14 0
13 -2 -14 0
13 2 -14 0
-14 -3 15 0
-14 3 -15 0
14 -3 15 0
14 3 -15 0
-15 -4 -177 16 0
-15 -4 177 -16 0
-15 4 -178 16 0
-15 4 178 -16 0
15 -4 -179 16 0
15 -4 179 -16 0
15 4 -180 16 0
15 4 180 -16 0
-16 -5 -17 0
-16 5 -17 0
16 -5 17 0
16 5 -17 0
-17 -6 18 0
-17 6 -18 0
17 -6 18 0
17 6 -18 0
-18 -7 19 0
-18 7 -19 0
18 -7 -19 0
18 7 -19 0
-19 -8 -193 20 0
-19 -8 193 -20 0
-19 8 -194 20 0
-19 8 194 -20 0
19 -8 -195 20 0
19 -8 195 -20 0
19 8 -196 20 0
19 8 196 -20 0
-20 -9 -197 21 0
-20 -9 197 -21 0
-20 9 -198 21 0
-20 9 198 -21 0
20 -9 -199 21 0
20 -9 199 -21 0
20 9 -200 21 0
20 9 200 -21 0
-21 -10 -22 0
-21 10 22 0
21 -10 -22 0
21 10 22 0
-22 -11 -23 0
-22 11 -23 0
22 -11 23 0
22 11 -23 0
-23 -12 -24 0
-23 12 -24 0
23 -12 24 0
23 12 24 0
-13 25 0
13 -25 0
-25 -14 -215 26 0
-25 -14 215 -26 0
-25 14 -216 26 0
-25 14 216 -26 0
25 -14 -217 26 0
25 -14 217 -26 0
25 14 -218 26 0
25 14 218 -26 0
-26 -15 -219 27 0
-26 -15 219 -27 0
-26 15 -220 27 0
-26 15 220 -27 0
26 -15 -221 27 0
26 -15 221 -27 0
26 15 -222 27 0
26 15 222 -27 0
-27 -16 28 0
-27 16 -28 0
27 -16 -28 0
27 16 -28 0
-28 -17 -29 0
-28 17 -29 0
28 -17 29 0
28 17 -29 0
-29 -18 30 0
-29 18 30 0
29 -18 -30 0
29 18 30 0
-30 -19 -235 31 0
-30 -19 235 -31 0
-30 19 -236 31 0
-30 19 236 -31 0
30 -19 -237 31 0
30 -19 237 -31 0
30 19 -238 31 0
30 19 238 -31 0
-31 -20 -32 0
-31 20 32 0
31 -20 -32 0
31 20 32 0
-32 -21 -33 0
-32 21 33 0
32 -21 -33 0
32 21 -33 0
-33 -22 34 0
-33 22 34 0
33 -22 34 0
33 22 -34 0
-34 -23 35 0
-34 23 -35 0
34 -23 35 0
34 23 35 0
-35 -24 -36 0
-35 24 36 0
35 -24 36 0
35 24 -36 0
-25 37 0
25 -37 0
-37 -26 -38 0
-37 26 38 0
37 -26 38 0
37 26 -38 0
-38 -27 -265 39 0
-38 -27 265 -39 0
-38 27 -266 39 0
-38 27 266 -39 0
38 -27 -267 39 0
38 -27 267 -39 0
38 27 -268 39 0
38 27 268 -39 0
-39 -28 -40 0
-39 28 -40 0
39 -28 40 0
39 28 40 0
-40 -29 -41 0
-40 29 -41 0
40 -29 41 0
40 29 41 0
-41 -30 42 0
-41 30 -42 0
41 -30 42 0
41 30 42 0
-42 -31 43 0
-42 31 -43 0
42 -31 43 0
42 31 43 0
-43 -32 -44 0
-43 32 -44 0
43 -32 44 0
43 32 44 0
-44 -33 -289 45 0
-44 -33 289 -45 0
-44 33 -290 45 0
-44 33 290 -45 0
44 -33 -291 45 0
44 -33 291 -45 0
44 33 -292 45 0
44 33 292 -45 0
-45 -34 -293 46 0
-45 -34 293 -46 0
-45 34 -294 46 0
-45 34 294 -46 0
45 -34 -295 46 0
45 -34 295 -46 0
45 34 -296 46 0
45 34 296 -46 0
-46 -35 -297 47 0
-46 -35 297 -47 0
-46 35 -298 47 0
-46 35 298 -47 0
46 -35 -299 47 0
46 -35 299 -47 0
46 35 -300 47 0
46 35 300 -47 0
-47 -36 48 0
-47 36 48 0
47 -36 -48 0
47 36 48 0
-37 49 0
37 -49 0
-49 -38 -50 0
-49 38 -50 0
49 -38 50 0
49 38 50 0
-50 -39 51 0
-50 39 -51 0
50 -39 51 0
50 39 51 0
-51 -40 -52 0
-51 40 52 0
51 -40 52 0
51 40 -52 0
-52 -41 -319 53 0
-52 -41 319 -53 0
-52 41 -320 53 0
-52 41 320 -53 0
52 -41 -321 53 0
52 -41 321 -53 0
52 41 -322 53 0
52 41 322 -53 0
-53 -42 54 0
-53 42 54 0
53 -42 -54 0
53 42 54 0
-54 -43 55 0
-54 43 55 0
54 -43 -55 0
54 43 55 0
-55 -44 -331 56 0
-55 -44 331 -56 0
-55 44 -332 56 0
-55 44 332 -56 0
55 -44 -333 56 0
55 -44 333 -56 0
55 44 -334 56 0
55 44 334 -56 0
-56 -45 -335 57 0
-56 -45 335 -57 0
-56 45 -336 57 0
-56 45 336 -57 0
56 -45 -337 57 0
56 -45 337 -57 0
56 45 -338 57 0
56 45 338 -57 0
-57 -46 -58 0
-57 46 58 0
57 -46 58 0
57 46 58 0
-58 -47 -343 59 0
-58 -47 343 -59 0
-58 47 -344 59 0
-58 47 344 -59 0
58 -47 -345 59 0
58 -47 345 -59 0
58 47 -346 59 0
58 47 346 -59 0
-59 -48 60 0
-59 48 -60 0
59 -48 -60 0
59 48 60 0
-49 61 0
49 -61 0
-61 -50 -62 0
-61 50 62 0
61 -50 -62 0
61 50 -62 0
-62 -51 -357 63 0
-62 -51 357 -63 0
-62 51 -358 63 0
-62 51 358 -63 0
62 -51 -359 63 0
62 -51 359 -63 0
62 51 -360 63 0
62 51 360 -63 0
-63 -52 64 0
-63 52 -64 0
63 -52 -64 0
63 52 -64 0
-64 -53 65 0
-64 53 65 0
64 -53 -65 0
64 53 65 0
-65 -54 66 0
-65 54 66 0
65 -54 -66 0
65 54 66 0
-66 -55 67 0
-66 55 67 0
66 -55 67 0
66 55 -67 0
-67 -56 -377 68 0
-67 -56 377 -68 0
-67 56 -378 68 0
-67 56 378 -68 0
67 -56 -379 68 0
67 -56 379 -68 0
67 56 -380 68 0
67 56 380 -68 0
-68 -57 -69 0
-68 57 69 0
68 -57 -69 0
68 57 69 0
-69 -58 -70 0
-69 58 -70 0
69 -58 70 0
69 58 -70 0
-70 -59 -71 0
-70 59 -71 0
70 -59 -71 0
70 59 71 0
-71 -60 72 0
-71 60 -72 0
71 -60 -72 0
71 60 -72 0
-61 73 0
61 -73 0
-73 -62 74 0
-73 62 74 0
73 -62 -74 0
73 62 -74 0
-74 -63 -75 0
-74 63 75 0
74 -63 -75 0
74 63 -75 0
-75 -64 -76 0
-75 64 76 0
75 -64 -76 0
75 64 -76 0
-76 -65 -411 77 0
-76 -65 411 -77 0
-76 65 -412 77 0
-76 65 412 -77 0
76 -65 -413 77 0
76 -65 413 -77 0
76 65 -414 77 0
76 65 414 -77 0
-77 -66 -78 0
-77 66 -78 0
77 -66 -78 0
77 66 78 0
-78 -67 -79 0
-78 67 79 0
78 -67 -79 0
78 67 79 0
-79 -68 -423 80 0
-79 -68 423 -80 0
-79 68 -424 80 0
-79 68 424 -80 0
79 -68 -425 80 0
79 -68 425 -80 0
79 68 -426 80 0
79 68 426 -80 0
-80 -69 -81 0
-80 69 -81 0
80 -69 81 0
80 69 -81 0
-81 -70 -431 82 0
-81 -70 431 -82 0
-81 70 -432 82 0
-81 70 432 -82 0
81 -70 -433 82 0
81 -70 433 -82 0
81 70 -434 82 0
81 70 434 -82 0
-82 -71 -435 83 0
-82 -71 435 -83 0
-82 71 -436 83 0
-82 71 436 -83 0
82 -71 -437 83 0
82 -71 437 -83 0
82 71 -438 83 0
82 71 438 -83 0
-83 -72 -84 0
-83 72 84 0
83 -72 84 0
83 72 84 0
-73 85 0
73 -85 0
-85 -74 86 0
-85 74 -86 0
85 -74 86 0
85 74 86 0
-86 -75 87 0
-86 75 -87 0
86 -75 87 0
86 75 87 0
-87 -76 -88 0
-87 76 88 0
87 -76 88 0
87 76 88 0
-88 -77 -89 0
-88 77 89 0
88 -77 89 0
88 77 89 0
-89 -78 -90 0
-89 78 -90 0
89 -78 90 0
89 78 90 0
-90 -79 -91 0
-90 79 -91 0
90 -79 91 0
90 79 -91 0
-91 -80 -92 0
-91 80 92 0
91 -80 92 0
91 80 92 0
-92 -81 93 0
-92 81 -93 0
92 -81 93 0
92 81 93 0
-93 -82 -94 0
-93 82 94 0
93 -82 94 0
93 82 94 0
-94 -83 -95 0
-94 83 95 0
94 -83 -95 0
94 83 -95 0
-95 -84 -485 96 0
-95 -84 485 -96 0
-95 84 -486 96 0
-95 84 486 -96 0
95 -84 -487 96 0
95 -84 487 -96 0
95 84 -488 96 0
95 84 488 -96 0
-85 -489 97 0
-85 489 -97 0
85 -490 97 0
85 490 -97 0
-97 -86 -98 0
-97 86 98 0
97 -86 -98 0
97 86 98 0
-98 -87 -495 99 0
-98 -87 495 -99 0
-98 87 -496 99 0
-98 87 496 -99 0
98 -87 -497 99 0
98 -87 497 -99 0
98 87 -498 99 0
98 87 498 -99 0
-99 -88 -499 100 0
-99 -88 499 -100 0
-99 88 -500 100 0
-99 88 500 -100 0
99 -88 -501 100 0
99 -88 501 -100 0
99 88 -502 100 0
99 88 502 -100 0
-100 -89 101 0
-100 89 101 0
100 -89 -101 0
100 89 -101 0
-101 -90 -102 0
-101 90 -102 0
101 -90 102 0
101 90 102 0
-102 -91 -103 0
-102 91 -103 0
102 -91 103 0
102 91 103 0
-103 -92 -104 0
-103 92 104 0
103 -92 -104 0
103 92 -104 0
-104 -93 -105 0
-104 93 105 0
104 -93 105 0
104 93 105 0
-105 -94 106 0
-105 94 106 0
105 -94 106 0
105 94 -106 0
-106 -95 -527 107 0
-106 -95 527 -107 0
-106 95 -528 107 0
-106 95 528 -107 0
106 -95 -529 107 0
106 -95 529 -107 0
106 95 -530 107 0
106 95 530 -107 0
-107 -96 -531 108 0
-107 -96 531 -108 0
-107 96 -532 108 0
-107 96 532 -108 0
107 -96 -533 108 0
107 -96 533 -108 0
107 96 -534 108 0
107 96 534 -108 0
-97 109 0
97 -109 0
-109 -98 110 0
-109 98 -110 0
109 -98 110 0
109 98 110 0
-110 -99 -541 111 0
-110 -99 541 -111 0
-110 99 -542 111 0
-110 99 542 -111 0
110 -99 -543 111 0
110 -99 543 -111 0
110 99 -544 111 0
110 99 544 -111 0
-111 -100 -112 0
-111 100 -112 0
111 -100 -112 0
111 100 112 0
-112 -101 113 0
-112 101 113 0
112 -101 113 0
112 101 -113 0
-113 -102 -553 114 0
-113 -102 553 -114 0
-113 102 -554 114 0
-113 102 554 -114 0
113 -102 -555 114 0
113 -102 555 -114 0
113 102 -556 114 0
113 102 556 -114 0
-114 -103 -115 0
-114 103 115 0
114 -103 115 0
114 103 -115 0
-115 -104 -116 0
-115 104 -116 0
115 -104 -116 0
115 104 116 0
-116 -105 -565 117 0
-116 -105 565 -117 0
-116 105 -566 117 0
-116 105 566 -117 0
116 -105 -567 117 0
116 -105 567 -117 0
116 105 -568 117 0
116 105 568 -117 0
-117 -106 -118 0
-117 106 -118 0
117 -106 118 0
117 106 -118 0
-118 -107 -573 119 0
-118 -107 573 -119 0
-118 107 -574 119 0
-118 107 574 -119 0
118 -107 -575 119 0
118 -107 575 -119 0
118 107 -576 119 0
118 107 576 -119 0
-119 -108 120 0
-119 108 120 0
119 -108 120 0
119 108 -120 0
-109 121 0
109 -121 0
-121 -110 122 0
-121 110 -122 0
121 -110 -122 0
121 110 122 0
-122 -111 123 0
-122 111 123 0
122 -111 -123 0
122 111 -123 0
-123 -112 -124 0
-123 112 -124 0
123 -112 124 0
123 112 124 0
-124 -113 -595 125 0
-124 -113 595 -125 0
-124 113 -596 125 0
-124 113 596 -125 0
124 -113 -597 125 0
124 -113 597 -125 0
124 113 -598 125 0
124 113 598 -125 0
-125 -114 126 0
-125 114 -126 0
125 -114 126 0
125 114 126 0
-126 -115 127 0
-126 115 -127 0
126 -115 127 0
126 115 127 0
-127 -116 128 0
-127 116 -128 0
127 -116 -128 0
127 116 -128 0
-128 -117 129 0
-128 117 -129 0
128 -117 129 0
128 117 129 0
-129 -118 130 0
-129 118 130 0
129 -118 130 0
129 118 -130 0
-130 -119 131 0
-130 119 -131 0
130 -119 -131 0
130 119 -131 0
-131 -120 -132 0
-131 120 -132 0
131 -120 132 0
131 120 132 0
-121 133 0
121 -133 0
-133 -122 -134 0
-133 122 134 0
133 -122 134 0
133 122 -134 0
-134 -123 135 0
-134 123 135 0
134 -123 -135 0
134 123 -135 0
-135 -124 136 0
-135 124 136 0
135 -124 -136 0
135 124 136 0
-136 -125 137 0
-136 125 137 0
136 -125 -137 0
136 125 137 0
-137 -126 -138 0
-137 126 138 0
137 -126 -138 0
137 126 -138 0
-138 -127 -139 0
-138 127 139 0
138 -127 -139 0
138 127 139 0
-139 -128 -140 0
-139 128 140 0
139 -128 140 0
139 128 -140 0
-140 -129 -141 0
-140 129 141 0
140 -129 141 0
140 129 -141 0
-141 -130 142 0
-141 130 -142 0
141 -130 142 0
141 130 -142 0
-142 -131 -143 0
-142 131 143 0
142 -131 -143 0
142 131 -143 0
-143 -132 -144 0
-143 132 -144 0
143 -132 -144 0
143 132 144 0
144 0
