data/benchmarks/bayes/75-12-9-q.gr
p tw 672 761
55 66
67 68
107 531
21 199
99 100
88 100
100 501
19 238
70 82
8 9
40 41
29 41
55 331
3 150
100 101
11 23
121 133
47 345
113 556
68 377
41 42
110 541
73 74
62 74
133 134
44 56
102 555
70 432
14 15
3 15
74 75
106 107
95 107
62 357
99 495
116 566
105 566
122 133
45 295
34 295
15 16
82 433
47 48
36 48
38 265
107 108
96 108
18 30
117 567
128 140
56 380
21 32
80 81
69 81
140 141
113 124
129 141
10 22
58 346
81 82
54 65
102 114
44 289
33 289
87 498
22 23
43 55
96 485
106 529
95 529
79 423
9 197
87 98
114 115
103 115
99 499
88 499
82 437
55 56
28 39
71 437
76 88
2 148
88 99
47 299
30 237
19 237
29 40
77 89
3 149
31 238
2 13
95 488
62 73
84 488
110 122
70 431
3 14
51 63
35 46
95 106
116 565
105 565
36 47
128 139
20 197
21 22
56 379
69 80
113 114
119 575
10 21
68 380
54 55
58 345
102 113
87 497
43 54
26 221
15 221
87 88
35 297
28 29
17 29
27 222
81 431
76 87
88 89
2 147
109 121
47 298
30 236
29 30
19 236
61 62
50 62
121 122
2 3
62 63
94 95
83 95
95 487
84 487
110 121
3 4
125 595
35 36
24 36
108 533
26 216
95 96
84 96
127 128
116 128
19 195
8 195
9 20
68 69
57 69
98 497
128 129
118 573
107 573
117 129
20 196
4 179
56 378
42 53
69 70
58 70
101 102
90 102
119 574
10 11
16 180
31 43
102 103
75 86
63 359
91 103
123 135
32 44
16 27
43 44
64 76
26 220
15 220
135 136
108 119
124 136
5 17
17 28
56 337
45 337
76 77
65 77
97 109
47 297
6 18
57 338
50 61
98 110
82 93
67 379
39 51
23 34
83 94
131 143
115 126
24 35
72 84
56 67
108 532
26 215
80 424
116 127
9 10
35 300
19 194
8 194
46 297
56 332
57 68
98 496
89 100
81 434
4 178
30 41
42 43
111 542
90 101
134 135
31 42
113 597
75 76
14 218
63 358
123 134
77 414
16 17
125 598
97 490
64 75
26 219
53 322
96 531
5 16
49 50
38 50
56 336
45 336
109 110
130 142
118 576
107 576
50 51
82 83
71 83
142 143
67 378
23 24
12 24
83 84
115 116
15 178
104 116
56 57
45 57
114 556
80 423
116 117
105 117
124 597
57 58
56 331
46 296
46 58
89 90
78 90
4 150
30 31
19 31
111 541
90 91
63 74
79 91
111 123
25 218
39 265
31 32
4 15
20 32
52 64
76 412
65 412
113 596
141 142
123 124
112 124
14 217
63 357
52 320
41 320
68 426
77 413
45 290
64 65
53 65
85 97
44 334
97 489
53 321
107 530
5 6
21 198
26 38
51 360
100 500
38 49
97 98
70 81
46 300
83 438
86 98
99 544
118 130
130 141
27 268
27 39
11 22
47 344
59 346
113 555
71 82
119 131
12 23
60 72
44 55
102 554
104 115
15 177
1 13
122 123
45 56
114 555
45 294
34 294
82 432
93 105
124 596
96 107
107 534
96 534
18 29
117 566
46 295
78 89
126 138
4 149
55 334
19 30
129 140
63 64
111 122
110 544
4 5
25 37
76 411
65 411
52 63
68 425
52 319
41 319
106 528
95 528
103 114
37 38
62 360
45 289
99 498
44 333
82 436
71 436
107 529
38 268
21 197
26 37
51 359
70 71
59 71
100 499
83 437
118 129
130 131
77 88
11 12
3 148
27 267
47 343
59 345
31 237
92 104
113 554
44 45
33 45
102 553
44 292
33 292
125 137
51 62
96 488
79 426
9 200
66 78
45 293
34 293
82 431
99 502
88 502
137 138
124 595
18 19
7 19
117 565
10 164
99 111
55 333
129 130
40 52
111 112
100 112
132 144
68 379
58 344
110 543
73 85
87 496
70 434
103 104
14 26
106 527
95 527
85 86
62 359
99 497
116 568
105 568
106 118
82 435
71 435
27 221
136 137
38 267
47 59
59 70
118 119
30 235
20 200
19 235
77 78
107 119
3 147
80 92
113 553
31 236
92 103
110 111
95 486
84 486
33 44
81 93
51 52
44 291
33 291
125 136
84 95
96 487
143 144
79 425
9 199
66 77
114 126
99 501
88 501
117 128
55 67
10 163
20 195
99 110
56 377
58 69
119 573
40 51
16 179
132 143
68 378
58 343
91 102
25 26
87 495
32 43
70 433
15 219
14 25
124 135
17 18
116 567
99 496
105 567
106 117
65 76
27 220
47 58
6 17
20 199
57 337
98 109
21 33
80 91
113 125
39 50
95 485
84 485
131 142
54 66
13 25
72 83
108 531
87 99
35 299
19 193
8 193
98 495
117 118
28 40
81 433
47 300
120 132
20 194
4 177
58 59
30 238
61 73
16 178
91 92
2 14
94 106
32 33
125 597
124 125
26 218
35 47
127 139
65 66
56 335
45 335
27 219
68 80
6 7
118 575
107 575
139 140
20 198
57 336
98 99
99 500
67 377
101 113
39 40
119 576
131 132
71 438
105 116
26 222
15 222
35 298
46 57
81 432
120 131
20 193
79 90
25 217
20 31
16 177
113 595
112 123
14 216
94 105
77 412
53 64
125 596
108 534
26 217
80 426
53 320
38 39
127 138
19 196
8 196
46 299
9 21
56 334
86 97
98 498
99 543
68 79
118 574
27 38
107 574
71 72
4 180
57 335
111 544
119 130
42 54
39 268
101 112
60 71
104 105
75 87
13 14
63 360
45 46
34 46
114 554
93 104
105 106
16 28
107 533
96 533
46 47
108 120
78 79
67 79
46 294
126 137
56 338
45 338
49 61
138 139
19 20
8 20
79 80
25 216
82 94
20 21
67 380
52 53
41 53
112 113
23 35
14 215
15 180
68 424
115 127
53 54
77 411
74 86
44 332
56 68
80 425
53 319
11 164
26 27
15 27
107 528
86 87
51 358
56 333
46 298
83 436
99 542
89 101
27 28
27 266
48 60
59 344
119 120
30 42
111 543
39 267
76 414
65 414
113 598
85 490
1 2
22 34
52 322
41 322
34 45
93 94
114 553
45 292
7 18
107 532
96 532
21 200
67 78
126 127
46 293
100 502
55 332
8 19
100 111
47 346
25 215
110 542
41 52
102 556
68 423
15 179
88 500
74 85
62 358
122 134
44 331
45 296
34 296
82 434
124 598
11 163
15 26
38 266
59 60
107 527
51 357
117 568
107 118
99 541
83 435
27 265
48 59
92 93
59 343
31 235
63 75
33 34
39 266
81 92
76 413
4 16
65 413
44 290
33 290
125 126
85 489
96 486
22 33
34 35
52 321
41 321
66 67
9 198
79 424
106 530
95 530
114 125
45 291
37 49
7 8
82 438
